NAME: ./prFile/tspFile/tsp_file67.tsp
COMMENT: TSP file generated by Python
TYPE: TSP
DIMENSION: 40
EDGE_WEIGHT_TYPE: EUC_2D
NODE_COORD_SECTION
1 95 36
2 49 90
3 42 68
4 14 91
5 79 45
6 56 72
7 79 27
8 83 3
9 71 99
10 51 36
11 69 65
12 75 30
13 61 34
14 41 80
15 95 28
16 61 25
17 85 72
18 57 39
19 95 80
20 52 8
21 4 51
22 43 89
23 57 14
24 45 75
25 72 42
26 75 16
27 5 54
28 47 75
29 23 53
30 83 94
31 50 60
32 1 78
33 71 70
34 25 6
35 90 67
36 49 39
37 5 73
38 8 11
39 4 59
40 75 69
EOF
